N = 9;
H = 5;
T = 2;

avail = array3d(1..N, 1..H, 1..T, [3, 1, 3, 4, 10, 2, 1, 8, 3, 0, 0, 4, 4, 8, 9, 2, 10, 9, 7, 1, 1, 4, 10, 5, 8, 0, 9, 5, 3, 10, 7, 5, 7, 10, 4, 4, 6, 2, 9, 1, 9, 5, 1, 4, 4, 4, 4, 1, 10, 7, 4, 3, 2, 5, 1, 0, 1, 8, 9, 1, 2, 0, 4, 9, 3, 10, 4, 7, 9, 2, 9, 5, 1, 1, 10, 2, 6, 10, 2, 1, 6, 10, 2, 8, 8, 9, 3, 4, 6, 0]);

r = array2d(1..H, 1..T, [0, 2, 2, 3, 3, 1, 0, 0, 3, 2]);
